c vehicle routing problem with time windows
c solomon C107_25
c
c problem vertices edges capacity
p vrptw 27 650 200
c
c vertex a b demand x y
v 0 0 12360 0 40 50
v 1 8500 10300 10 45 68
v 2 7580 9380 30 45 70
v 3 160 1960 10 42 66
v 4 6650 8450 10 42 68
v 5 150 1950 10 42 65
v 6 5720 7520 20 40 69
v 7 1080 2880 20 40 66
v 8 2000 3800 20 38 68
v 9 4800 6600 10 38 70
v 10 2940 4740 10 35 66
v 11 3870 5670 10 35 69
v 12 5970 7770 20 25 85
v 13 300 2100 30 22 75
v 14 5040 6840 10 22 85
v 15 3170 4970 40 20 80
v 16 4120 5920 40 20 85
v 17 340 2140 20 18 75
v 18 1270 3070 20 15 75
v 19 2220 4020 10 15 80
v 20 100 1900 10 30 50
v 21 8500 10300 20 30 52
v 22 7580 9380 20 28 52
v 23 6650 8450 10 28 55
v 24 150 1950 10 25 50
v 25 1070 2870 40 25 52
v 26 0 12360 0 40 50
c
c source target cost time
a 0 1 186 186
a 0 2 206 206
a 0 3 161 161
a 0 4 181 181
a 0 5 151 151
a 0 6 190 190
a 0 7 160 160
a 0 8 181 181
a 0 9 200 200
a 0 10 167 167
a 0 11 196 196
a 0 12 380 380
a 0 13 308 308
a 0 14 393 393
a 0 15 360 360
a 0 16 403 403
a 0 17 333 333
a 0 18 353 353
a 0 19 390 390
a 0 20 100 100
a 0 21 101 101
a 0 22 121 121
a 0 23 130 130
a 0 24 150 150
a 0 25 151 151
a 1 2 20 920
a 1 3 36 936
a 1 4 30 930
a 1 5 42 942
a 1 6 50 950
a 1 7 53 953
a 1 8 70 970
a 1 9 72 972
a 1 10 101 1001
a 1 11 100 1000
a 1 12 262 1162
a 1 13 240 1140
a 1 14 286 1186
a 1 15 277 1177
a 1 16 302 1202
a 1 17 278 1178
a 1 18 308 1208
a 1 19 323 1223
a 1 20 234 1134
a 1 21 219 1119
a 1 22 233 1133
a 1 23 214 1114
a 1 24 269 1169
a 1 25 256 1156
a 1 26 186 1086
a 2 1 20 920
a 2 3 50 950
a 2 4 36 936
a 2 5 58 958
a 2 6 50 950
a 2 7 64 964
a 2 8 72 972
a 2 9 70 970
a 2 10 107 1007
a 2 11 100 1000
a 2 12 250 1150
a 2 13 235 1135
a 2 14 274 1174
a 2 15 269 1169
a 2 16 291 1191
a 2 17 274 1174
a 2 18 304 1204
a 2 19 316 1216
a 2 20 250 1150
a 2 21 234 1134
a 2 22 247 1147
a 2 23 226 1126
a 2 24 282 1182
a 2 25 269 1169
a 2 26 206 1106
a 3 1 36 936
a 3 2 50 950
a 3 4 20 920
a 3 5 10 910
a 3 6 36 936
a 3 7 20 920
a 3 8 44 944
a 3 9 56 956
a 3 10 70 970
a 3 11 76 976
a 3 12 254 1154
a 3 13 219 1119
a 3 14 275 1175
a 3 15 260 1160
a 3 16 290 1190
a 3 17 256 1156
a 3 18 284 1184
a 3 19 304 1204
a 3 20 200 1100
a 3 21 184 1084
a 3 22 197 1097
a 3 23 178 1078
a 3 24 233 1133
a 3 25 220 1120
a 3 26 161 1061
a 4 1 30 930
a 4 2 36 936
a 4 3 20 920
a 4 5 30 930
a 4 6 22 922
a 4 7 28 928
a 4 8 40 940
a 4 9 44 944
a 4 10 72 972
a 4 11 70 970
a 4 12 240 1140
a 4 13 211 1111
a 4 14 262 1162
a 4 15 250 1150
a 4 16 278 1178
a 4 17 250 1150
a 4 18 278 1178
a 4 19 295 1195
a 4 20 216 1116
a 4 21 200 1100
a 4 22 212 1112
a 4 23 191 1091
a 4 24 247 1147
a 4 25 233 1133
a 4 26 181 1081
a 5 1 42 942
a 5 2 58 958
a 5 3 10 910
a 5 4 30 930
a 5 6 44 944
a 5 7 22 922
a 5 8 50 950
a 5 9 64 964
a 5 10 70 970
a 5 11 80 980
a 5 12 262 1162
a 5 13 223 1123
a 5 14 282 1182
a 5 15 266 1166
a 5 16 297 1197
a 5 17 260 1160
a 5 18 287 1187
a 5 19 308 1208
a 5 20 192 1092
a 5 21 176 1076
a 5 22 191 1091
a 5 23 172 1072
a 5 24 226 1126
a 5 25 214 1114
a 5 26 151 1051
a 6 1 50 950
a 6 2 50 950
a 6 3 36 936
a 6 4 22 922
a 6 5 44 944
a 6 7 30 930
a 6 8 22 922
a 6 9 22 922
a 6 10 58 958
a 6 11 50 950
a 6 12 219 1119
a 6 13 189 1089
a 6 14 240 1140
a 6 15 228 1128
a 6 16 256 1156
a 6 17 228 1128
a 6 18 257 1157
a 6 19 273 1173
a 6 20 214 1114
a 6 21 197 1097
a 6 22 208 1108
a 6 23 184 1084
a 6 24 242 1142
a 6 25 226 1126
a 6 26 190 1090
a 7 1 53 953
a 7 2 64 964
a 7 3 20 920
a 7 4 28 928
a 7 5 22 922
a 7 6 30 930
a 7 8 28 928
a 7 9 44 944
a 7 10 50 950
a 7 11 58 958
a 7 12 242 1142
a 7 13 201 1101
a 7 14 261 1161
a 7 15 244 1144
a 7 16 275 1175
a 7 17 237 1137
a 7 18 265 1165
a 7 19 286 1186
a 7 20 188 1088
a 7 21 172 1072
a 7 22 184 1084
a 7 23 162 1062
a 7 24 219 1119
a 7 25 205 1105
a 7 26 160 1060
a 8 1 70 970
a 8 2 72 972
a 8 3 44 944
a 8 4 40 940
a 8 5 50 950
a 8 6 22 922
a 8 7 28 928
a 8 9 20 920
a 8 10 36 936
a 8 11 31 931
a 8 12 214 1114
a 8 13 174 1074
a 8 14 233 1133
a 8 15 216 1116
a 8 16 247 1147
a 8 17 211 1111
a 8 18 240 1140
a 8 19 259 1159
a 8 20 196 1096
a 8 21 178 1078
a 8 22 188 1088
a 8 23 164 1064
a 8 24 222 1122
a 8 25 206 1106
a 8 26 181 1081
a 9 1 72 972
a 9 2 70 970
a 9 3 56 956
a 9 4 44 944
a 9 5 64 964
a 9 6 22 922
a 9 7 44 944
a 9 8 20 920
a 9 10 50 950
a 9 11 31 931
a 9 12 198 1098
a 9 13 167 1067
a 9 14 219 1119
a 9 15 205 1105
a 9 16 234 1134
a 9 17 206 1106
a 9 18 235 1135
a 9 19 250 1150
a 9 20 215 1115
a 9 21 196 1096
a 9 22 205 1105
a 9 23 180 1080
a 9 24 238 1138
a 9 25 222 1122
a 9 26 200 1100
a 10 1 101 1001
a 10 2 107 1007
a 10 3 70 970
a 10 4 72 972
a 10 5 70 970
a 10 6 58 958
a 10 7 50 950
a 10 8 36 936
a 10 9 50 950
a 10 11 30 930
a 10 12 214 1114
a 10 13 158 1058
a 10 14 230 1130
a 10 15 205 1105
a 10 16 242 1142
a 10 17 192 1092
a 10 18 219 1119
a 10 19 244 1144
a 10 20 167 1067
a 10 21 148 1048
a 10 22 156 1056
a 10 23 130 1030
a 10 24 188 1088
a 10 25 172 1072
a 10 26 167 1067
a 11 1 100 1000
a 11 2 100 1000
a 11 3 76 976
a 11 4 70 970
a 11 5 80 980
a 11 6 50 950
a 11 7 58 958
a 11 8 31 931
a 11 9 31 931
a 11 10 30 930
a 11 12 188 1088
a 11 13 143 1043
a 11 14 206 1106
a 11 15 186 1086
a 11 16 219 1119
a 11 17 180 1080
a 11 18 208 1108
a 11 19 228 1128
a 11 20 196 1096
a 11 21 177 1077
a 11 22 183 1083
a 11 23 156 1056
a 11 24 214 1114
a 11 25 197 1097
a 11 26 196 1096
a 12 1 262 1162
a 12 2 250 1150
a 12 3 254 1154
a 12 4 240 1140
a 12 5 262 1162
a 12 6 219 1119
a 12 7 242 1142
a 12 8 214 1114
a 12 9 198 1098
a 12 10 214 1114
a 12 11 188 1088
a 12 13 104 1004
a 12 14 30 930
a 12 15 70 970
a 12 16 50 950
a 12 17 122 1022
a 12 18 141 1041
a 12 19 111 1011
a 12 20 353 1253
a 12 21 333 1233
a 12 22 331 1231
a 12 23 301 1201
a 12 24 350 1250
a 12 25 330 1230
a 12 26 380 1280
a 13 1 240 1140
a 13 2 235 1135
a 13 3 219 1119
a 13 4 211 1111
a 13 5 223 1123
a 13 6 189 1089
a 13 7 201 1101
a 13 8 174 1074
a 13 9 167 1067
a 13 10 158 1058
a 13 11 143 1043
a 13 12 104 1004
a 13 14 100 1000
a 13 15 53 953
a 13 16 101 1001
a 13 17 40 940
a 13 18 70 970
a 13 19 86 986
a 13 20 262 1162
a 13 21 243 1143
a 13 22 237 1137
a 13 23 208 1108
a 13 24 251 1151
a 13 25 231 1131
a 13 26 308 1208
a 14 1 286 1186
a 14 2 274 1174
a 14 3 275 1175
a 14 4 262 1162
a 14 5 282 1182
a 14 6 240 1140
a 14 7 261 1161
a 14 8 233 1133
a 14 9 219 1119
a 14 10 230 1130
a 14 11 206 1106
a 14 12 30 930
a 14 13 100 1000
a 14 15 53 953
a 14 16 20 920
a 14 17 107 1007
a 14 18 122 1022
a 14 19 86 986
a 14 20 359 1259
a 14 21 339 1239
a 14 22 335 1235
a 14 23 305 1205
a 14 24 351 1251
a 14 25 331 1231
a 14 26 393 1293
a 15 1 277 1177
a 15 2 269 1169
a 15 3 260 1160
a 15 4 250 1150
a 15 5 266 1166
a 15 6 228 1128
a 15 7 244 1144
a 15 8 216 1116
a 15 9 205 1105
a 15 10 205 1105
a 15 11 186 1086
a 15 12 70 970
a 15 13 53 953
a 15 14 53 953
a 15 16 50 950
a 15 17 53 953
a 15 18 70 970
a 15 19 50 950
a 15 20 316 1216
a 15 21 297 1197
a 15 22 291 1191
a 15 23 262 1162
a 15 24 304 1204
a 15 25 284 1184
a 15 26 360 1260
a 16 1 302 1202
a 16 2 291 1191
a 16 3 290 1190
a 16 4 278 1178
a 16 5 297 1197
a 16 6 256 1156
a 16 7 275 1175
a 16 8 247 1147
a 16 9 234 1134
a 16 10 242 1142
a 16 11 219 1119
a 16 12 50 950
a 16 13 101 1001
a 16 14 20 920
a 16 15 50 950
a 16 17 101 1001
a 16 18 111 1011
a 16 19 70 970
a 16 20 364 1264
a 16 21 344 1244
a 16 22 339 1239
a 16 23 310 1210
a 16 24 353 1253
a 16 25 333 1233
a 16 26 403 1303
a 17 1 278 1178
a 17 2 274 1174
a 17 3 256 1156
a 17 4 250 1150
a 17 5 260 1160
a 17 6 228 1128
a 17 7 237 1137
a 17 8 211 1111
a 17 9 206 1106
a 17 10 192 1092
a 17 11 180 1080
a 17 12 122 1022
a 17 13 40 940
a 17 14 107 1007
a 17 15 53 953
a 17 16 101 1001
a 17 18 30 930
a 17 19 58 958
a 17 20 277 1177
a 17 21 259 1159
a 17 22 250 1150
a 17 23 223 1123
a 17 24 259 1159
a 17 25 240 1140
a 17 26 333 1233
a 18 1 308 1208
a 18 2 304 1204
a 18 3 284 1184
a 18 4 278 1178
a 18 5 287 1187
a 18 6 257 1157
a 18 7 265 1165
a 18 8 240 1140
a 18 9 235 1135
a 18 10 219 1119
a 18 11 208 1108
a 18 12 141 1041
a 18 13 70 970
a 18 14 122 1022
a 18 15 70 970
a 18 16 111 1011
a 18 17 30 930
a 18 19 50 950
a 18 20 291 1191
a 18 21 274 1174
a 18 22 264 1164
a 18 23 238 1138
a 18 24 269 1169
a 18 25 250 1150
a 18 26 353 1253
a 19 1 323 1223
a 19 2 316 1216
a 19 3 304 1204
a 19 4 295 1195
a 19 5 308 1208
a 19 6 273 1173
a 19 7 286 1186
a 19 8 259 1159
a 19 9 250 1150
a 19 10 244 1144
a 19 11 228 1128
a 19 12 111 1011
a 19 13 86 986
a 19 14 86 986
a 19 15 50 950
a 19 16 70 970
a 19 17 58 958
a 19 18 50 950
a 19 20 335 1235
a 19 21 317 1217
a 19 22 308 1208
a 19 23 281 1181
a 19 24 316 1216
a 19 25 297 1197
a 19 26 390 1290
a 20 1 234 1134
a 20 2 250 1150
a 20 3 200 1100
a 20 4 216 1116
a 20 5 192 1092
a 20 6 214 1114
a 20 7 188 1088
a 20 8 196 1096
a 20 9 215 1115
a 20 10 167 1067
a 20 11 196 1096
a 20 12 353 1253
a 20 13 262 1162
a 20 14 359 1259
a 20 15 316 1216
a 20 16 364 1264
a 20 17 277 1177
a 20 18 291 1191
a 20 19 335 1235
a 20 21 20 920
a 20 22 28 928
a 20 23 53 953
a 20 24 50 950
a 20 25 53 953
a 20 26 100 1000
a 21 1 219 1119
a 21 2 234 1134
a 21 3 184 1084
a 21 4 200 1100
a 21 5 176 1076
a 21 6 197 1097
a 21 7 172 1072
a 21 8 178 1078
a 21 9 196 1096
a 21 10 148 1048
a 21 11 177 1077
a 21 12 333 1233
a 21 13 243 1143
a 21 14 339 1239
a 21 15 297 1197
a 21 16 344 1244
a 21 17 259 1159
a 21 18 274 1174
a 21 19 317 1217
a 21 20 20 920
a 21 22 20 920
a 21 23 36 936
a 21 24 53 953
a 21 25 50 950
a 21 26 101 1001
a 22 1 233 1133
a 22 2 247 1147
a 22 3 197 1097
a 22 4 212 1112
a 22 5 191 1091
a 22 6 208 1108
a 22 7 184 1084
a 22 8 188 1088
a 22 9 205 1105
a 22 10 156 1056
a 22 11 183 1083
a 22 12 331 1231
a 22 13 237 1137
a 22 14 335 1235
a 22 15 291 1191
a 22 16 339 1239
a 22 17 250 1150
a 22 18 264 1164
a 22 19 308 1208
a 22 20 28 928
a 22 21 20 920
a 22 23 30 930
a 22 24 36 936
a 22 25 30 930
a 22 26 121 1021
a 23 1 214 1114
a 23 2 226 1126
a 23 3 178 1078
a 23 4 191 1091
a 23 5 172 1072
a 23 6 184 1084
a 23 7 162 1062
a 23 8 164 1064
a 23 9 180 1080
a 23 10 130 1030
a 23 11 156 1056
a 23 12 301 1201
a 23 13 208 1108
a 23 14 305 1205
a 23 15 262 1162
a 23 16 310 1210
a 23 17 223 1123
a 23 18 238 1138
a 23 19 281 1181
a 23 20 53 953
a 23 21 36 936
a 23 22 30 930
a 23 24 58 958
a 23 25 42 942
a 23 26 130 1030
a 24 1 269 1169
a 24 2 282 1182
a 24 3 233 1133
a 24 4 247 1147
a 24 5 226 1126
a 24 6 242 1142
a 24 7 219 1119
a 24 8 222 1122
a 24 9 238 1138
a 24 10 188 1088
a 24 11 214 1114
a 24 12 350 1250
a 24 13 251 1151
a 24 14 351 1251
a 24 15 304 1204
a 24 16 353 1253
a 24 17 259 1159
a 24 18 269 1169
a 24 19 316 1216
a 24 20 50 950
a 24 21 53 953
a 24 22 36 936
a 24 23 58 958
a 24 25 20 920
a 24 26 150 1050
a 25 1 256 1156
a 25 2 269 1169
a 25 3 220 1120
a 25 4 233 1133
a 25 5 214 1114
a 25 6 226 1126
a 25 7 205 1105
a 25 8 206 1106
a 25 9 222 1122
a 25 10 172 1072
a 25 11 197 1097
a 25 12 330 1230
a 25 13 231 1131
a 25 14 331 1231
a 25 15 284 1184
a 25 16 333 1233
a 25 17 240 1140
a 25 18 250 1150
a 25 19 297 1197
a 25 20 53 953
a 25 21 50 950
a 25 22 30 930
a 25 23 42 942
a 25 24 20 920
a 25 26 151 1051
